NPROCS=0
This instance is clustered!
Gurobi Optimizer version 9.0.0 build v9.0.0rc2 (linux64)
Optimize a model with 26 rows, 170 columns and 338 nonzeros
Model fingerprint: 0x0e55c66e
Variable types: 1 continuous, 169 integer (169 binary)
Coefficient statistics:
  Matrix range     [1e+00, 1e+00]
  Objective range  [1e+00, 1e+02]
  Bounds range     [1e+00, 1e+00]
  RHS range        [1e+00, 1e+00]
 done with super cut 0
Presolve removed 2 rows and 36 columns
Presolve time: 0.00s
Presolved: 24 rows, 134 columns, 266 nonzeros
Variable types: 1 continuous, 133 integer (133 binary)

Root relaxation: objective 2.204868e+02, 25 iterations, 0.00 seconds
 done with super cut 1

    Nodes    |    Current Node    |     Objective Bounds      |     Work
 Expl Unexpl |  Obj  Depth IntInf | Incumbent    BestBd   Gap | It/Node Time

     0     0  229.39789    0    4          -  229.39789      -     -    0s
     0     0  250.09667    0   24          -  250.09667      -     -    0s
     0     0  250.09667    0   24          -  250.09667      -     -    0s
     0     2  250.09667    0   24          -  250.09667      -     -    0s
 done with super cut 2
 done with super cut 3
 done with super cut 4
 done with super cut 5
 done with super cut 6
 done with super cut 7
 done with super cut 8
 done with super cut 9
 done with super cut 10
*   88    71               7     294.1466627  278.64680  5.27%   7.1    4s
*  120    31               7     291.3072802  278.64680  4.35%   5.7    4s
H  150     5                     283.2825391  280.96899  0.82%   5.1    4s

Cutting planes:
  Gomory: 1
  Lazy constraints: 44

Explored 176 nodes (832 simplex iterations) in 4.69 seconds
Thread count was 12 (of 12 available processors)

Solution count 3: 283.283 291.307 294.147 

Optimal solution found (tolerance 1.00e-04)
Best objective 2.832825391015e+02, best bound 2.832825391015e+02, gap 0.0000%

User-callback calls 475, time in user-callback 4.65 sec
/projects/academic/josewalt/caigao/RRARP_BD/BendersDecomp/ret/model_outs/n_11_m_4_algo_4.out
 =====>>>>> Solution is written to file in <../ret/model_outs> !!!
===>> All Done!
